c *********************************
c * Circuit generated by BenCGen
c *
c * CarrySaveAdder_114_114_114_114_115
c *
c * Ports with 1 gate(s): 2
c * Ports with 2 gate(s): 571
c * Total gates: 573
c *********************************
p cnf 915 1945
1 573 0
-1 -573 0
1 -572 0
573 -572 0
-1 -573 572 0
572 -457 0
-572 457 0
1 115 -574 0
-1 115 574 0
1 -115 574 0
-1 -115 -574 0
574 229 -343 0
-574 229 343 0
574 -229 343 0
-574 -229 -343 0
229 -575 0
574 -575 0
-229 -574 575 0
115 -576 0
1 -576 0
-115 -1 576 0
-575 458 0
-576 458 0
575 576 -458 0
2 116 -577 0
-2 116 577 0
2 -116 577 0
-2 -116 -577 0
577 230 -344 0
-577 230 344 0
577 -230 344 0
-577 -230 -344 0
230 -578 0
577 -578 0
-230 -577 578 0
116 -579 0
2 -579 0
-116 -2 579 0
-578 459 0
-579 459 0
578 579 -459 0
3 117 -580 0
-3 117 580 0
3 -117 580 0
-3 -117 -580 0
580 231 -345 0
-580 231 345 0
580 -231 345 0
-580 -231 -345 0
231 -581 0
580 -581 0
-231 -580 581 0
117 -582 0
3 -582 0
-117 -3 582 0
-581 460 0
-582 460 0
581 582 -460 0
4 118 -583 0
-4 118 583 0
4 -118 583 0
-4 -118 -583 0
583 232 -346 0
-583 232 346 0
583 -232 346 0
-583 -232 -346 0
232 -584 0
583 -584 0
-232 -583 584 0
118 -585 0
4 -585 0
-118 -4 585 0
-584 461 0
-585 461 0
584 585 -461 0
5 119 -586 0
-5 119 586 0
5 -119 586 0
-5 -119 -586 0
586 233 -347 0
-586 233 347 0
586 -233 347 0
-586 -233 -347 0
233 -587 0
586 -587 0
-233 -586 587 0
119 -588 0
5 -588 0
-119 -5 588 0
-587 462 0
-588 462 0
587 588 -462 0
6 120 -589 0
-6 120 589 0
6 -120 589 0
-6 -120 -589 0
589 234 -348 0
-589 234 348 0
589 -234 348 0
-589 -234 -348 0
234 -590 0
589 -590 0
-234 -589 590 0
120 -591 0
6 -591 0
-120 -6 591 0
-590 463 0
-591 463 0
590 591 -463 0
7 121 -592 0
-7 121 592 0
7 -121 592 0
-7 -121 -592 0
592 235 -349 0
-592 235 349 0
592 -235 349 0
-592 -235 -349 0
235 -593 0
592 -593 0
-235 -592 593 0
121 -594 0
7 -594 0
-121 -7 594 0
-593 464 0
-594 464 0
593 594 -464 0
8 122 -595 0
-8 122 595 0
8 -122 595 0
-8 -122 -595 0
595 236 -350 0
-595 236 350 0
595 -236 350 0
-595 -236 -350 0
236 -596 0
595 -596 0
-236 -595 596 0
122 -597 0
8 -597 0
-122 -8 597 0
-596 465 0
-597 465 0
596 597 -465 0
9 123 -598 0
-9 123 598 0
9 -123 598 0
-9 -123 -598 0
598 237 -351 0
-598 237 351 0
598 -237 351 0
-598 -237 -351 0
237 -599 0
598 -599 0
-237 -598 599 0
123 -600 0
9 -600 0
-123 -9 600 0
-599 466 0
-600 466 0
599 600 -466 0
10 124 -601 0
-10 124 601 0
10 -124 601 0
-10 -124 -601 0
601 238 -352 0
-601 238 352 0
601 -238 352 0
-601 -238 -352 0
238 -602 0
601 -602 0
-238 -601 602 0
124 -603 0
10 -603 0
-124 -10 603 0
-602 467 0
-603 467 0
602 603 -467 0
11 125 -604 0
-11 125 604 0
11 -125 604 0
-11 -125 -604 0
604 239 -353 0
-604 239 353 0
604 -239 353 0
-604 -239 -353 0
239 -605 0
604 -605 0
-239 -604 605 0
125 -606 0
11 -606 0
-125 -11 606 0
-605 468 0
-606 468 0
605 606 -468 0
12 126 -607 0
-12 126 607 0
12 -126 607 0
-12 -126 -607 0
607 240 -354 0
-607 240 354 0
607 -240 354 0
-607 -240 -354 0
240 -608 0
607 -608 0
-240 -607 608 0
126 -609 0
12 -609 0
-126 -12 609 0
-608 469 0
-609 469 0
608 609 -469 0
13 127 -610 0
-13 127 610 0
13 -127 610 0
-13 -127 -610 0
610 241 -355 0
-610 241 355 0
610 -241 355 0
-610 -241 -355 0
241 -611 0
610 -611 0
-241 -610 611 0
127 -612 0
13 -612 0
-127 -13 612 0
-611 470 0
-612 470 0
611 612 -470 0
14 128 -613 0
-14 128 613 0
14 -128 613 0
-14 -128 -613 0
613 242 -356 0
-613 242 356 0
613 -242 356 0
-613 -242 -356 0
242 -614 0
613 -614 0
-242 -613 614 0
128 -615 0
14 -615 0
-128 -14 615 0
-614 471 0
-615 471 0
614 615 -471 0
15 129 -616 0
-15 129 616 0
15 -129 616 0
-15 -129 -616 0
616 243 -357 0
-616 243 357 0
616 -243 357 0
-616 -243 -357 0
243 -617 0
616 -617 0
-243 -616 617 0
129 -618 0
15 -618 0
-129 -15 618 0
-617 472 0
-618 472 0
617 618 -472 0
16 130 -619 0
-16 130 619 0
16 -130 619 0
-16 -130 -619 0
619 244 -358 0
-619 244 358 0
619 -244 358 0
-619 -244 -358 0
244 -620 0
619 -620 0
-244 -619 620 0
130 -621 0
16 -621 0
-130 -16 621 0
-620 473 0
-621 473 0
620 621 -473 0
17 131 -622 0
-17 131 622 0
17 -131 622 0
-17 -131 -622 0
622 245 -359 0
-622 245 359 0
622 -245 359 0
-622 -245 -359 0
245 -623 0
622 -623 0
-245 -622 623 0
131 -624 0
17 -624 0
-131 -17 624 0
-623 474 0
-624 474 0
623 624 -474 0
18 132 -625 0
-18 132 625 0
18 -132 625 0
-18 -132 -625 0
625 246 -360 0
-625 246 360 0
625 -246 360 0
-625 -246 -360 0
246 -626 0
625 -626 0
-246 -625 626 0
132 -627 0
18 -627 0
-132 -18 627 0
-626 475 0
-627 475 0
626 627 -475 0
19 133 -628 0
-19 133 628 0
19 -133 628 0
-19 -133 -628 0
628 247 -361 0
-628 247 361 0
628 -247 361 0
-628 -247 -361 0
247 -629 0
628 -629 0
-247 -628 629 0
133 -630 0
19 -630 0
-133 -19 630 0
-629 476 0
-630 476 0
629 630 -476 0
20 134 -631 0
-20 134 631 0
20 -134 631 0
-20 -134 -631 0
631 248 -362 0
-631 248 362 0
631 -248 362 0
-631 -248 -362 0
248 -632 0
631 -632 0
-248 -631 632 0
134 -633 0
20 -633 0
-134 -20 633 0
-632 477 0
-633 477 0
632 633 -477 0
21 135 -634 0
-21 135 634 0
21 -135 634 0
-21 -135 -634 0
634 249 -363 0
-634 249 363 0
634 -249 363 0
-634 -249 -363 0
249 -635 0
634 -635 0
-249 -634 635 0
135 -636 0
21 -636 0
-135 -21 636 0
-635 478 0
-636 478 0
635 636 -478 0
22 136 -637 0
-22 136 637 0
22 -136 637 0
-22 -136 -637 0
637 250 -364 0
-637 250 364 0
637 -250 364 0
-637 -250 -364 0
250 -638 0
637 -638 0
-250 -637 638 0
136 -639 0
22 -639 0
-136 -22 639 0
-638 479 0
-639 479 0
638 639 -479 0
23 137 -640 0
-23 137 640 0
23 -137 640 0
-23 -137 -640 0
640 251 -365 0
-640 251 365 0
640 -251 365 0
-640 -251 -365 0
251 -641 0
640 -641 0
-251 -640 641 0
137 -642 0
23 -642 0
-137 -23 642 0
-641 480 0
-642 480 0
641 642 -480 0
24 138 -643 0
-24 138 643 0
24 -138 643 0
-24 -138 -643 0
643 252 -366 0
-643 252 366 0
643 -252 366 0
-643 -252 -366 0
252 -644 0
643 -644 0
-252 -643 644 0
138 -645 0
24 -645 0
-138 -24 645 0
-644 481 0
-645 481 0
644 645 -481 0
25 139 -646 0
-25 139 646 0
25 -139 646 0
-25 -139 -646 0
646 253 -367 0
-646 253 367 0
646 -253 367 0
-646 -253 -367 0
253 -647 0
646 -647 0
-253 -646 647 0
139 -648 0
25 -648 0
-139 -25 648 0
-647 482 0
-648 482 0
647 648 -482 0
26 140 -649 0
-26 140 649 0
26 -140 649 0
-26 -140 -649 0
649 254 -368 0
-649 254 368 0
649 -254 368 0
-649 -254 -368 0
254 -650 0
649 -650 0
-254 -649 650 0
140 -651 0
26 -651 0
-140 -26 651 0
-650 483 0
-651 483 0
650 651 -483 0
27 141 -652 0
-27 141 652 0
27 -141 652 0
-27 -141 -652 0
652 255 -369 0
-652 255 369 0
652 -255 369 0
-652 -255 -369 0
255 -653 0
652 -653 0
-255 -652 653 0
141 -654 0
27 -654 0
-141 -27 654 0
-653 484 0
-654 484 0
653 654 -484 0
28 142 -655 0
-28 142 655 0
28 -142 655 0
-28 -142 -655 0
655 256 -370 0
-655 256 370 0
655 -256 370 0
-655 -256 -370 0
256 -656 0
655 -656 0
-256 -655 656 0
142 -657 0
28 -657 0
-142 -28 657 0
-656 485 0
-657 485 0
656 657 -485 0
29 143 -658 0
-29 143 658 0
29 -143 658 0
-29 -143 -658 0
658 257 -371 0
-658 257 371 0
658 -257 371 0
-658 -257 -371 0
257 -659 0
658 -659 0
-257 -658 659 0
143 -660 0
29 -660 0
-143 -29 660 0
-659 486 0
-660 486 0
659 660 -486 0
30 144 -661 0
-30 144 661 0
30 -144 661 0
-30 -144 -661 0
661 258 -372 0
-661 258 372 0
661 -258 372 0
-661 -258 -372 0
258 -662 0
661 -662 0
-258 -661 662 0
144 -663 0
30 -663 0
-144 -30 663 0
-662 487 0
-663 487 0
662 663 -487 0
31 145 -664 0
-31 145 664 0
31 -145 664 0
-31 -145 -664 0
664 259 -373 0
-664 259 373 0
664 -259 373 0
-664 -259 -373 0
259 -665 0
664 -665 0
-259 -664 665 0
145 -666 0
31 -666 0
-145 -31 666 0
-665 488 0
-666 488 0
665 666 -488 0
32 146 -667 0
-32 146 667 0
32 -146 667 0
-32 -146 -667 0
667 260 -374 0
-667 260 374 0
667 -260 374 0
-667 -260 -374 0
260 -668 0
667 -668 0
-260 -667 668 0
146 -669 0
32 -669 0
-146 -32 669 0
-668 489 0
-669 489 0
668 669 -489 0
33 147 -670 0
-33 147 670 0
33 -147 670 0
-33 -147 -670 0
670 261 -375 0
-670 261 375 0
670 -261 375 0
-670 -261 -375 0
261 -671 0
670 -671 0
-261 -670 671 0
147 -672 0
33 -672 0
-147 -33 672 0
-671 490 0
-672 490 0
671 672 -490 0
34 148 -673 0
-34 148 673 0
34 -148 673 0
-34 -148 -673 0
673 262 -376 0
-673 262 376 0
673 -262 376 0
-673 -262 -376 0
262 -674 0
673 -674 0
-262 -673 674 0
148 -675 0
34 -675 0
-148 -34 675 0
-674 491 0
-675 491 0
674 675 -491 0
35 149 -676 0
-35 149 676 0
35 -149 676 0
-35 -149 -676 0
676 263 -377 0
-676 263 377 0
676 -263 377 0
-676 -263 -377 0
263 -677 0
676 -677 0
-263 -676 677 0
149 -678 0
35 -678 0
-149 -35 678 0
-677 492 0
-678 492 0
677 678 -492 0
36 150 -679 0
-36 150 679 0
36 -150 679 0
-36 -150 -679 0
679 264 -378 0
-679 264 378 0
679 -264 378 0
-679 -264 -378 0
264 -680 0
679 -680 0
-264 -679 680 0
150 -681 0
36 -681 0
-150 -36 681 0
-680 493 0
-681 493 0
680 681 -493 0
37 151 -682 0
-37 151 682 0
37 -151 682 0
-37 -151 -682 0
682 265 -379 0
-682 265 379 0
682 -265 379 0
-682 -265 -379 0
265 -683 0
682 -683 0
-265 -682 683 0
151 -684 0
37 -684 0
-151 -37 684 0
-683 494 0
-684 494 0
683 684 -494 0
38 152 -685 0
-38 152 685 0
38 -152 685 0
-38 -152 -685 0
685 266 -380 0
-685 266 380 0
685 -266 380 0
-685 -266 -380 0
266 -686 0
685 -686 0
-266 -685 686 0
152 -687 0
38 -687 0
-152 -38 687 0
-686 495 0
-687 495 0
686 687 -495 0
39 153 -688 0
-39 153 688 0
39 -153 688 0
-39 -153 -688 0
688 267 -381 0
-688 267 381 0
688 -267 381 0
-688 -267 -381 0
267 -689 0
688 -689 0
-267 -688 689 0
153 -690 0
39 -690 0
-153 -39 690 0
-689 496 0
-690 496 0
689 690 -496 0
40 154 -691 0
-40 154 691 0
40 -154 691 0
-40 -154 -691 0
691 268 -382 0
-691 268 382 0
691 -268 382 0
-691 -268 -382 0
268 -692 0
691 -692 0
-268 -691 692 0
154 -693 0
40 -693 0
-154 -40 693 0
-692 497 0
-693 497 0
692 693 -497 0
41 155 -694 0
-41 155 694 0
41 -155 694 0
-41 -155 -694 0
694 269 -383 0
-694 269 383 0
694 -269 383 0
-694 -269 -383 0
269 -695 0
694 -695 0
-269 -694 695 0
155 -696 0
41 -696 0
-155 -41 696 0
-695 498 0
-696 498 0
695 696 -498 0
42 156 -697 0
-42 156 697 0
42 -156 697 0
-42 -156 -697 0
697 270 -384 0
-697 270 384 0
697 -270 384 0
-697 -270 -384 0
270 -698 0
697 -698 0
-270 -697 698 0
156 -699 0
42 -699 0
-156 -42 699 0
-698 499 0
-699 499 0
698 699 -499 0
43 157 -700 0
-43 157 700 0
43 -157 700 0
-43 -157 -700 0
700 271 -385 0
-700 271 385 0
700 -271 385 0
-700 -271 -385 0
271 -701 0
700 -701 0
-271 -700 701 0
157 -702 0
43 -702 0
-157 -43 702 0
-701 500 0
-702 500 0
701 702 -500 0
44 158 -703 0
-44 158 703 0
44 -158 703 0
-44 -158 -703 0
703 272 -386 0
-703 272 386 0
703 -272 386 0
-703 -272 -386 0
272 -704 0
703 -704 0
-272 -703 704 0
158 -705 0
44 -705 0
-158 -44 705 0
-704 501 0
-705 501 0
704 705 -501 0
45 159 -706 0
-45 159 706 0
45 -159 706 0
-45 -159 -706 0
706 273 -387 0
-706 273 387 0
706 -273 387 0
-706 -273 -387 0
273 -707 0
706 -707 0
-273 -706 707 0
159 -708 0
45 -708 0
-159 -45 708 0
-707 502 0
-708 502 0
707 708 -502 0
46 160 -709 0
-46 160 709 0
46 -160 709 0
-46 -160 -709 0
709 274 -388 0
-709 274 388 0
709 -274 388 0
-709 -274 -388 0
274 -710 0
709 -710 0
-274 -709 710 0
160 -711 0
46 -711 0
-160 -46 711 0
-710 503 0
-711 503 0
710 711 -503 0
47 161 -712 0
-47 161 712 0
47 -161 712 0
-47 -161 -712 0
712 275 -389 0
-712 275 389 0
712 -275 389 0
-712 -275 -389 0
275 -713 0
712 -713 0
-275 -712 713 0
161 -714 0
47 -714 0
-161 -47 714 0
-713 504 0
-714 504 0
713 714 -504 0
48 162 -715 0
-48 162 715 0
48 -162 715 0
-48 -162 -715 0
715 276 -390 0
-715 276 390 0
715 -276 390 0
-715 -276 -390 0
276 -716 0
715 -716 0
-276 -715 716 0
162 -717 0
48 -717 0
-162 -48 717 0
-716 505 0
-717 505 0
716 717 -505 0
49 163 -718 0
-49 163 718 0
49 -163 718 0
-49 -163 -718 0
718 277 -391 0
-718 277 391 0
718 -277 391 0
-718 -277 -391 0
277 -719 0
718 -719 0
-277 -718 719 0
163 -720 0
49 -720 0
-163 -49 720 0
-719 506 0
-720 506 0
719 720 -506 0
50 164 -721 0
-50 164 721 0
50 -164 721 0
-50 -164 -721 0
721 278 -392 0
-721 278 392 0
721 -278 392 0
-721 -278 -392 0
278 -722 0
721 -722 0
-278 -721 722 0
164 -723 0
50 -723 0
-164 -50 723 0
-722 507 0
-723 507 0
722 723 -507 0
51 165 -724 0
-51 165 724 0
51 -165 724 0
-51 -165 -724 0
724 279 -393 0
-724 279 393 0
724 -279 393 0
-724 -279 -393 0
279 -725 0
724 -725 0
-279 -724 725 0
165 -726 0
51 -726 0
-165 -51 726 0
-725 508 0
-726 508 0
725 726 -508 0
52 166 -727 0
-52 166 727 0
52 -166 727 0
-52 -166 -727 0
727 280 -394 0
-727 280 394 0
727 -280 394 0
-727 -280 -394 0
280 -728 0
727 -728 0
-280 -727 728 0
166 -729 0
52 -729 0
-166 -52 729 0
-728 509 0
-729 509 0
728 729 -509 0
53 167 -730 0
-53 167 730 0
53 -167 730 0
-53 -167 -730 0
730 281 -395 0
-730 281 395 0
730 -281 395 0
-730 -281 -395 0
281 -731 0
730 -731 0
-281 -730 731 0
167 -732 0
53 -732 0
-167 -53 732 0
-731 510 0
-732 510 0
731 732 -510 0
54 168 -733 0
-54 168 733 0
54 -168 733 0
-54 -168 -733 0
733 282 -396 0
-733 282 396 0
733 -282 396 0
-733 -282 -396 0
282 -734 0
733 -734 0
-282 -733 734 0
168 -735 0
54 -735 0
-168 -54 735 0
-734 511 0
-735 511 0
734 735 -511 0
55 169 -736 0
-55 169 736 0
55 -169 736 0
-55 -169 -736 0
736 283 -397 0
-736 283 397 0
736 -283 397 0
-736 -283 -397 0
283 -737 0
736 -737 0
-283 -736 737 0
169 -738 0
55 -738 0
-169 -55 738 0
-737 512 0
-738 512 0
737 738 -512 0
56 170 -739 0
-56 170 739 0
56 -170 739 0
-56 -170 -739 0
739 284 -398 0
-739 284 398 0
739 -284 398 0
-739 -284 -398 0
284 -740 0
739 -740 0
-284 -739 740 0
170 -741 0
56 -741 0
-170 -56 741 0
-740 513 0
-741 513 0
740 741 -513 0
57 171 -742 0
-57 171 742 0
57 -171 742 0
-57 -171 -742 0
742 285 -399 0
-742 285 399 0
742 -285 399 0
-742 -285 -399 0
285 -743 0
742 -743 0
-285 -742 743 0
171 -744 0
57 -744 0
-171 -57 744 0
-743 514 0
-744 514 0
743 744 -514 0
58 172 -745 0
-58 172 745 0
58 -172 745 0
-58 -172 -745 0
745 286 -400 0
-745 286 400 0
745 -286 400 0
-745 -286 -400 0
286 -746 0
745 -746 0
-286 -745 746 0
172 -747 0
58 -747 0
-172 -58 747 0
-746 515 0
-747 515 0
746 747 -515 0
59 173 -748 0
-59 173 748 0
59 -173 748 0
-59 -173 -748 0
748 287 -401 0
-748 287 401 0
748 -287 401 0
-748 -287 -401 0
287 -749 0
748 -749 0
-287 -748 749 0
173 -750 0
59 -750 0
-173 -59 750 0
-749 516 0
-750 516 0
749 750 -516 0
60 174 -751 0
-60 174 751 0
60 -174 751 0
-60 -174 -751 0
751 288 -402 0
-751 288 402 0
751 -288 402 0
-751 -288 -402 0
288 -752 0
751 -752 0
-288 -751 752 0
174 -753 0
60 -753 0
-174 -60 753 0
-752 517 0
-753 517 0
752 753 -517 0
61 175 -754 0
-61 175 754 0
61 -175 754 0
-61 -175 -754 0
754 289 -403 0
-754 289 403 0
754 -289 403 0
-754 -289 -403 0
289 -755 0
754 -755 0
-289 -754 755 0
175 -756 0
61 -756 0
-175 -61 756 0
-755 518 0
-756 518 0
755 756 -518 0
62 176 -757 0
-62 176 757 0
62 -176 757 0
-62 -176 -757 0
757 290 -404 0
-757 290 404 0
757 -290 404 0
-757 -290 -404 0
290 -758 0
757 -758 0
-290 -757 758 0
176 -759 0
62 -759 0
-176 -62 759 0
-758 519 0
-759 519 0
758 759 -519 0
63 177 -760 0
-63 177 760 0
63 -177 760 0
-63 -177 -760 0
760 291 -405 0
-760 291 405 0
760 -291 405 0
-760 -291 -405 0
291 -761 0
760 -761 0
-291 -760 761 0
177 -762 0
63 -762 0
-177 -63 762 0
-761 520 0
-762 520 0
761 762 -520 0
64 178 -763 0
-64 178 763 0
64 -178 763 0
-64 -178 -763 0
763 292 -406 0
-763 292 406 0
763 -292 406 0
-763 -292 -406 0
292 -764 0
763 -764 0
-292 -763 764 0
178 -765 0
64 -765 0
-178 -64 765 0
-764 521 0
-765 521 0
764 765 -521 0
65 179 -766 0
-65 179 766 0
65 -179 766 0
-65 -179 -766 0
766 293 -407 0
-766 293 407 0
766 -293 407 0
-766 -293 -407 0
293 -767 0
766 -767 0
-293 -766 767 0
179 -768 0
65 -768 0
-179 -65 768 0
-767 522 0
-768 522 0
767 768 -522 0
66 180 -769 0
-66 180 769 0
66 -180 769 0
-66 -180 -769 0
769 294 -408 0
-769 294 408 0
769 -294 408 0
-769 -294 -408 0
294 -770 0
769 -770 0
-294 -769 770 0
180 -771 0
66 -771 0
-180 -66 771 0
-770 523 0
-771 523 0
770 771 -523 0
67 181 -772 0
-67 181 772 0
67 -181 772 0
-67 -181 -772 0
772 295 -409 0
-772 295 409 0
772 -295 409 0
-772 -295 -409 0
295 -773 0
772 -773 0
-295 -772 773 0
181 -774 0
67 -774 0
-181 -67 774 0
-773 524 0
-774 524 0
773 774 -524 0
68 182 -775 0
-68 182 775 0
68 -182 775 0
-68 -182 -775 0
775 296 -410 0
-775 296 410 0
775 -296 410 0
-775 -296 -410 0
296 -776 0
775 -776 0
-296 -775 776 0
182 -777 0
68 -777 0
-182 -68 777 0
-776 525 0
-777 525 0
776 777 -525 0
69 183 -778 0
-69 183 778 0
69 -183 778 0
-69 -183 -778 0
778 297 -411 0
-778 297 411 0
778 -297 411 0
-778 -297 -411 0
297 -779 0
778 -779 0
-297 -778 779 0
183 -780 0
69 -780 0
-183 -69 780 0
-779 526 0
-780 526 0
779 780 -526 0
70 184 -781 0
-70 184 781 0
70 -184 781 0
-70 -184 -781 0
781 298 -412 0
-781 298 412 0
781 -298 412 0
-781 -298 -412 0
298 -782 0
781 -782 0
-298 -781 782 0
184 -783 0
70 -783 0
-184 -70 783 0
-782 527 0
-783 527 0
782 783 -527 0
71 185 -784 0
-71 185 784 0
71 -185 784 0
-71 -185 -784 0
784 299 -413 0
-784 299 413 0
784 -299 413 0
-784 -299 -413 0
299 -785 0
784 -785 0
-299 -784 785 0
185 -786 0
71 -786 0
-185 -71 786 0
-785 528 0
-786 528 0
785 786 -528 0
72 186 -787 0
-72 186 787 0
72 -186 787 0
-72 -186 -787 0
787 300 -414 0
-787 300 414 0
787 -300 414 0
-787 -300 -414 0
300 -788 0
787 -788 0
-300 -787 788 0
186 -789 0
72 -789 0
-186 -72 789 0
-788 529 0
-789 529 0
788 789 -529 0
73 187 -790 0
-73 187 790 0
73 -187 790 0
-73 -187 -790 0
790 301 -415 0
-790 301 415 0
790 -301 415 0
-790 -301 -415 0
301 -791 0
790 -791 0
-301 -790 791 0
187 -792 0
73 -792 0
-187 -73 792 0
-791 530 0
-792 530 0
791 792 -530 0
74 188 -793 0
-74 188 793 0
74 -188 793 0
-74 -188 -793 0
793 302 -416 0
-793 302 416 0
793 -302 416 0
-793 -302 -416 0
302 -794 0
793 -794 0
-302 -793 794 0
188 -795 0
74 -795 0
-188 -74 795 0
-794 531 0
-795 531 0
794 795 -531 0
75 189 -796 0
-75 189 796 0
75 -189 796 0
-75 -189 -796 0
796 303 -417 0
-796 303 417 0
796 -303 417 0
-796 -303 -417 0
303 -797 0
796 -797 0
-303 -796 797 0
189 -798 0
75 -798 0
-189 -75 798 0
-797 532 0
-798 532 0
797 798 -532 0
76 190 -799 0
-76 190 799 0
76 -190 799 0
-76 -190 -799 0
799 304 -418 0
-799 304 418 0
799 -304 418 0
-799 -304 -418 0
304 -800 0
799 -800 0
-304 -799 800 0
190 -801 0
76 -801 0
-190 -76 801 0
-800 533 0
-801 533 0
800 801 -533 0
77 191 -802 0
-77 191 802 0
77 -191 802 0
-77 -191 -802 0
802 305 -419 0
-802 305 419 0
802 -305 419 0
-802 -305 -419 0
305 -803 0
802 -803 0
-305 -802 803 0
191 -804 0
77 -804 0
-191 -77 804 0
-803 534 0
-804 534 0
803 804 -534 0
78 192 -805 0
-78 192 805 0
78 -192 805 0
-78 -192 -805 0
805 306 -420 0
-805 306 420 0
805 -306 420 0
-805 -306 -420 0
306 -806 0
805 -806 0
-306 -805 806 0
192 -807 0
78 -807 0
-192 -78 807 0
-806 535 0
-807 535 0
806 807 -535 0
79 193 -808 0
-79 193 808 0
79 -193 808 0
-79 -193 -808 0
808 307 -421 0
-808 307 421 0
808 -307 421 0
-808 -307 -421 0
307 -809 0
808 -809 0
-307 -808 809 0
193 -810 0
79 -810 0
-193 -79 810 0
-809 536 0
-810 536 0
809 810 -536 0
80 194 -811 0
-80 194 811 0
80 -194 811 0
-80 -194 -811 0
811 308 -422 0
-811 308 422 0
811 -308 422 0
-811 -308 -422 0
308 -812 0
811 -812 0
-308 -811 812 0
194 -813 0
80 -813 0
-194 -80 813 0
-812 537 0
-813 537 0
812 813 -537 0
81 195 -814 0
-81 195 814 0
81 -195 814 0
-81 -195 -814 0
814 309 -423 0
-814 309 423 0
814 -309 423 0
-814 -309 -423 0
309 -815 0
814 -815 0
-309 -814 815 0
195 -816 0
81 -816 0
-195 -81 816 0
-815 538 0
-816 538 0
815 816 -538 0
82 196 -817 0
-82 196 817 0
82 -196 817 0
-82 -196 -817 0
817 310 -424 0
-817 310 424 0
817 -310 424 0
-817 -310 -424 0
310 -818 0
817 -818 0
-310 -817 818 0
196 -819 0
82 -819 0
-196 -82 819 0
-818 539 0
-819 539 0
818 819 -539 0
83 197 -820 0
-83 197 820 0
83 -197 820 0
-83 -197 -820 0
820 311 -425 0
-820 311 425 0
820 -311 425 0
-820 -311 -425 0
311 -821 0
820 -821 0
-311 -820 821 0
197 -822 0
83 -822 0
-197 -83 822 0
-821 540 0
-822 540 0
821 822 -540 0
84 198 -823 0
-84 198 823 0
84 -198 823 0
-84 -198 -823 0
823 312 -426 0
-823 312 426 0
823 -312 426 0
-823 -312 -426 0
312 -824 0
823 -824 0
-312 -823 824 0
198 -825 0
84 -825 0
-198 -84 825 0
-824 541 0
-825 541 0
824 825 -541 0
85 199 -826 0
-85 199 826 0
85 -199 826 0
-85 -199 -826 0
826 313 -427 0
-826 313 427 0
826 -313 427 0
-826 -313 -427 0
313 -827 0
826 -827 0
-313 -826 827 0
199 -828 0
85 -828 0
-199 -85 828 0
-827 542 0
-828 542 0
827 828 -542 0
86 200 -829 0
-86 200 829 0
86 -200 829 0
-86 -200 -829 0
829 314 -428 0
-829 314 428 0
829 -314 428 0
-829 -314 -428 0
314 -830 0
829 -830 0
-314 -829 830 0
200 -831 0
86 -831 0
-200 -86 831 0
-830 543 0
-831 543 0
830 831 -543 0
87 201 -832 0
-87 201 832 0
87 -201 832 0
-87 -201 -832 0
832 315 -429 0
-832 315 429 0
832 -315 429 0
-832 -315 -429 0
315 -833 0
832 -833 0
-315 -832 833 0
201 -834 0
87 -834 0
-201 -87 834 0
-833 544 0
-834 544 0
833 834 -544 0
88 202 -835 0
-88 202 835 0
88 -202 835 0
-88 -202 -835 0
835 316 -430 0
-835 316 430 0
835 -316 430 0
-835 -316 -430 0
316 -836 0
835 -836 0
-316 -835 836 0
202 -837 0
88 -837 0
-202 -88 837 0
-836 545 0
-837 545 0
836 837 -545 0
89 203 -838 0
-89 203 838 0
89 -203 838 0
-89 -203 -838 0
838 317 -431 0
-838 317 431 0
838 -317 431 0
-838 -317 -431 0
317 -839 0
838 -839 0
-317 -838 839 0
203 -840 0
89 -840 0
-203 -89 840 0
-839 546 0
-840 546 0
839 840 -546 0
90 204 -841 0
-90 204 841 0
90 -204 841 0
-90 -204 -841 0
841 318 -432 0
-841 318 432 0
841 -318 432 0
-841 -318 -432 0
318 -842 0
841 -842 0
-318 -841 842 0
204 -843 0
90 -843 0
-204 -90 843 0
-842 547 0
-843 547 0
842 843 -547 0
91 205 -844 0
-91 205 844 0
91 -205 844 0
-91 -205 -844 0
844 319 -433 0
-844 319 433 0
844 -319 433 0
-844 -319 -433 0
319 -845 0
844 -845 0
-319 -844 845 0
205 -846 0
91 -846 0
-205 -91 846 0
-845 548 0
-846 548 0
845 846 -548 0
92 206 -847 0
-92 206 847 0
92 -206 847 0
-92 -206 -847 0
847 320 -434 0
-847 320 434 0
847 -320 434 0
-847 -320 -434 0
320 -848 0
847 -848 0
-320 -847 848 0
206 -849 0
92 -849 0
-206 -92 849 0
-848 549 0
-849 549 0
848 849 -549 0
93 207 -850 0
-93 207 850 0
93 -207 850 0
-93 -207 -850 0
850 321 -435 0
-850 321 435 0
850 -321 435 0
-850 -321 -435 0
321 -851 0
850 -851 0
-321 -850 851 0
207 -852 0
93 -852 0
-207 -93 852 0
-851 550 0
-852 550 0
851 852 -550 0
94 208 -853 0
-94 208 853 0
94 -208 853 0
-94 -208 -853 0
853 322 -436 0
-853 322 436 0
853 -322 436 0
-853 -322 -436 0
322 -854 0
853 -854 0
-322 -853 854 0
208 -855 0
94 -855 0
-208 -94 855 0
-854 551 0
-855 551 0
854 855 -551 0
95 209 -856 0
-95 209 856 0
95 -209 856 0
-95 -209 -856 0
856 323 -437 0
-856 323 437 0
856 -323 437 0
-856 -323 -437 0
323 -857 0
856 -857 0
-323 -856 857 0
209 -858 0
95 -858 0
-209 -95 858 0
-857 552 0
-858 552 0
857 858 -552 0
96 210 -859 0
-96 210 859 0
96 -210 859 0
-96 -210 -859 0
859 324 -438 0
-859 324 438 0
859 -324 438 0
-859 -324 -438 0
324 -860 0
859 -860 0
-324 -859 860 0
210 -861 0
96 -861 0
-210 -96 861 0
-860 553 0
-861 553 0
860 861 -553 0
97 211 -862 0
-97 211 862 0
97 -211 862 0
-97 -211 -862 0
862 325 -439 0
-862 325 439 0
862 -325 439 0
-862 -325 -439 0
325 -863 0
862 -863 0
-325 -862 863 0
211 -864 0
97 -864 0
-211 -97 864 0
-863 554 0
-864 554 0
863 864 -554 0
98 212 -865 0
-98 212 865 0
98 -212 865 0
-98 -212 -865 0
865 326 -440 0
-865 326 440 0
865 -326 440 0
-865 -326 -440 0
326 -866 0
865 -866 0
-326 -865 866 0
212 -867 0
98 -867 0
-212 -98 867 0
-866 555 0
-867 555 0
866 867 -555 0
99 213 -868 0
-99 213 868 0
99 -213 868 0
-99 -213 -868 0
868 327 -441 0
-868 327 441 0
868 -327 441 0
-868 -327 -441 0
327 -869 0
868 -869 0
-327 -868 869 0
213 -870 0
99 -870 0
-213 -99 870 0
-869 556 0
-870 556 0
869 870 -556 0
100 214 -871 0
-100 214 871 0
100 -214 871 0
-100 -214 -871 0
871 328 -442 0
-871 328 442 0
871 -328 442 0
-871 -328 -442 0
328 -872 0
871 -872 0
-328 -871 872 0
214 -873 0
100 -873 0
-214 -100 873 0
-872 557 0
-873 557 0
872 873 -557 0
101 215 -874 0
-101 215 874 0
101 -215 874 0
-101 -215 -874 0
874 329 -443 0
-874 329 443 0
874 -329 443 0
-874 -329 -443 0
329 -875 0
874 -875 0
-329 -874 875 0
215 -876 0
101 -876 0
-215 -101 876 0
-875 558 0
-876 558 0
875 876 -558 0
102 216 -877 0
-102 216 877 0
102 -216 877 0
-102 -216 -877 0
877 330 -444 0
-877 330 444 0
877 -330 444 0
-877 -330 -444 0
330 -878 0
877 -878 0
-330 -877 878 0
216 -879 0
102 -879 0
-216 -102 879 0
-878 559 0
-879 559 0
878 879 -559 0
103 217 -880 0
-103 217 880 0
103 -217 880 0
-103 -217 -880 0
880 331 -445 0
-880 331 445 0
880 -331 445 0
-880 -331 -445 0
331 -881 0
880 -881 0
-331 -880 881 0
217 -882 0
103 -882 0
-217 -103 882 0
-881 560 0
-882 560 0
881 882 -560 0
104 218 -883 0
-104 218 883 0
104 -218 883 0
-104 -218 -883 0
883 332 -446 0
-883 332 446 0
883 -332 446 0
-883 -332 -446 0
332 -884 0
883 -884 0
-332 -883 884 0
218 -885 0
104 -885 0
-218 -104 885 0
-884 561 0
-885 561 0
884 885 -561 0
105 219 -886 0
-105 219 886 0
105 -219 886 0
-105 -219 -886 0
886 333 -447 0
-886 333 447 0
886 -333 447 0
-886 -333 -447 0
333 -887 0
886 -887 0
-333 -886 887 0
219 -888 0
105 -888 0
-219 -105 888 0
-887 562 0
-888 562 0
887 888 -562 0
106 220 -889 0
-106 220 889 0
106 -220 889 0
-106 -220 -889 0
889 334 -448 0
-889 334 448 0
889 -334 448 0
-889 -334 -448 0
334 -890 0
889 -890 0
-334 -889 890 0
220 -891 0
106 -891 0
-220 -106 891 0
-890 563 0
-891 563 0
890 891 -563 0
107 221 -892 0
-107 221 892 0
107 -221 892 0
-107 -221 -892 0
892 335 -449 0
-892 335 449 0
892 -335 449 0
-892 -335 -449 0
335 -893 0
892 -893 0
-335 -892 893 0
221 -894 0
107 -894 0
-221 -107 894 0
-893 564 0
-894 564 0
893 894 -564 0
108 222 -895 0
-108 222 895 0
108 -222 895 0
-108 -222 -895 0
895 336 -450 0
-895 336 450 0
895 -336 450 0
-895 -336 -450 0
336 -896 0
895 -896 0
-336 -895 896 0
222 -897 0
108 -897 0
-222 -108 897 0
-896 565 0
-897 565 0
896 897 -565 0
109 223 -898 0
-109 223 898 0
109 -223 898 0
-109 -223 -898 0
898 337 -451 0
-898 337 451 0
898 -337 451 0
-898 -337 -451 0
337 -899 0
898 -899 0
-337 -898 899 0
223 -900 0
109 -900 0
-223 -109 900 0
-899 566 0
-900 566 0
899 900 -566 0
110 224 -901 0
-110 224 901 0
110 -224 901 0
-110 -224 -901 0
901 338 -452 0
-901 338 452 0
901 -338 452 0
-901 -338 -452 0
338 -902 0
901 -902 0
-338 -901 902 0
224 -903 0
110 -903 0
-224 -110 903 0
-902 567 0
-903 567 0
902 903 -567 0
111 225 -904 0
-111 225 904 0
111 -225 904 0
-111 -225 -904 0
904 339 -453 0
-904 339 453 0
904 -339 453 0
-904 -339 -453 0
339 -905 0
904 -905 0
-339 -904 905 0
225 -906 0
111 -906 0
-225 -111 906 0
-905 568 0
-906 568 0
905 906 -568 0
112 226 -907 0
-112 226 907 0
112 -226 907 0
-112 -226 -907 0
907 340 -454 0
-907 340 454 0
907 -340 454 0
-907 -340 -454 0
340 -908 0
907 -908 0
-340 -907 908 0
226 -909 0
112 -909 0
-226 -112 909 0
-908 569 0
-909 569 0
908 909 -569 0
113 227 -910 0
-113 227 910 0
113 -227 910 0
-113 -227 -910 0
910 341 -455 0
-910 341 455 0
910 -341 455 0
-910 -341 -455 0
341 -911 0
910 -911 0
-341 -910 911 0
227 -912 0
113 -912 0
-227 -113 912 0
-911 570 0
-912 570 0
911 912 -570 0
114 228 -913 0
-114 228 913 0
114 -228 913 0
-114 -228 -913 0
913 342 -456 0
-913 342 456 0
913 -342 456 0
-913 -342 -456 0
342 -914 0
913 -914 0
-342 -913 914 0
228 -915 0
114 -915 0
-228 -114 915 0
-914 571 0
-915 571 0
914 915 -571 0
